problems/csplib-prob015/SchursLemma-models/noch/O2/lingeling/model_1_3-3-16-solution000001.eprime-solution
language ESSENCE' 1.0

letting boxes_PartitionAsSet_ExplicitR5_ExplicitVarSizeWithMarker_Marker be [5, 5, 6; int(1..3)]
letting boxes_PartitionAsSet_ExplicitR5_ExplicitVarSizeWithMarker_Values be
        [[1, 3, 6, 12, 14, 1, 1, 1, 1, 1, 1, 1, 1, 1, 1, 1; int(1..16)],
         [5, 7, 10, 11, 13, 1, 1, 1, 1, 1, 1, 1, 1, 1, 1, 1; int(1..16)],
         [2, 4, 8, 9, 15, 16, 1, 1, 1, 1, 1, 1, 1, 1, 1, 1; int(1..16)]; int(1..3)]
