problems/csplib-prob015/SchursLemma-models/noch/O2/lingeling/model_1_3-3-16-solution000001.solution
language Essence 1.3

letting boxes be partition({1, 3, 6, 12, 14}, {2, 4, 8, 9, 15, 16}, {5, 7, 10, 11, 13})
